Geographic Exponential Decay
20 157 116 95 253 104 287 280 31 117 238 276 301 43 9 80 303 219 27 296 72
p edge 320 319
e 0 9 97.0
e 1 185 5.0
e 1 0 8.0
e 2 187 3.0
e 2 1 11.0
e 3 283 44.0
e 3 262 18.0
e 3 102 21.0
e 3 2 44.0
e 4 27 37.0
e 4 3 3.0
e 5 183 5.0
e 5 4 1.0
e 6 96 5.0
e 6 5 1.0
e 7 186 1.0
e 7 6 2.0
e 8 134 4.0
e 8 7 1.0
e 9 233 83.0
e 9 13 48.0
e 9 14 88.0
e 9 62 1.0
e 10 265 6.0
e 10 8 6.0
e 11 138 7.0
e 11 10 1.0
e 12 129 4.0
e 12 11 5.0
e 13 228 19.0
e 15 210 1.0
e 15 12 6.0
e 16 41 1.0
e 16 15 6.0
e 17 256 13.0
e 17 190 23.0
e 17 16 13.0
e 18 83 2.0
e 18 17 5.0
e 19 257 6.0
e 19 18 9.0
e 20 21 4.0
e 20 97 11.0
e 20 19 1.0
e 22 234 2.0
e 22 20 17.0
e 23 174 1.0
e 23 22 11.0
e 24 277 5.0
e 24 23 5.0
e 25 202 2.0
e 25 24 5.0
e 26 302 1.0
e 26 25 1.0
e 27 178 18.0
e 27 28 79.0
e 27 211 44.0
e 27 170 67.0
e 29 169 1.0
e 29 26 1.0
e 30 207 1.0
e 30 29 1.0
e 31 270 6.0
e 31 127 50.0
e 31 177 29.0
e 31 198 73.0
e 31 35 65.0
e 31 30 69.0
e 32 80 50.0
e 32 31 47.0
e 33 184 1.0
e 33 34 5.0
e 33 32 13.0
e 36 85 2.0
e 36 33 12.0
e 37 38 8.0
e 37 36 2.0
e 39 122 4.0
e 39 37 6.0
e 40 42 2.0
e 40 39 1.0
e 43 115 61.0
e 43 222 69.0
e 43 271 87.0
e 43 230 95.0
e 43 310 79.0
e 43 40 64.0
e 44 201 11.0
e 44 43 63.0
e 45 51 3.0
e 45 44 5.0
e 46 313 1.0
e 46 45 3.0
e 47 203 2.0
e 47 46 1.0
e 48 260 4.0
e 48 47 1.0
e 49 98 2.0
e 49 48 4.0
e 50 52 5.0
e 50 49 1.0
e 53 68 1.0
e 53 50 1.0
e 54 55 2.0
e 54 53 1.0
e 56 158 1.0
e 56 54 1.0
e 57 140 1.0
e 57 56 3.0
e 58 103 47.0
e 58 86 37.0
e 58 59 16.0
e 58 57 34.0
e 60 188 3.0
e 60 58 3.0
e 61 159 4.0
e 61 60 3.0
e 63 110 4.0
e 63 61 4.0
e 64 131 5.0
e 64 63 9.0
e 65 309 1.0
e 65 64 2.0
e 66 132 1.0
e 66 65 2.0
e 67 171 5.0
e 67 66 6.0
e 69 135 5.0
e 69 67 1.0
e 70 165 1.0
e 70 69 4.0
e 71 72 95.0
e 71 204 19.0
e 71 70 1.0
e 72 154 11.0
e 72 73 81.0
e 72 74 34.0
e 72 215 29.0
e 75 76 2.0
e 75 71 22.0
e 77 78 22.0
e 77 82 11.0
e 77 75 19.0
e 79 284 1.0
e 79 77 14.0
e 80 81 32.0
e 80 301 98.0
e 80 84 8.0
e 80 166 67.0
e 87 88 3.0
e 87 79 1.0
e 89 90 2.0
e 89 87 3.0
e 91 92 5.0
e 91 89 6.0
e 93 290 7.0
e 93 91 2.0
e 94 235 1.0
e 94 93 1.0
e 95 99 91.0
e 95 100 81.0
e 95 101 51.0
e 95 214 88.0
e 95 104 91.0
e 95 94 88.0
e 104 136 8.0
e 104 105 11.0
e 104 106 20.0
e 104 120 57.0
e 107 141 3.0
e 107 95 90.0
e 108 123 5.0
e 108 107 3.0
e 109 307 3.0
e 109 108 5.0
e 111 216 2.0
e 111 109 1.0
e 112 246 3.0
e 112 111 1.0
e 113 114 16.0
e 113 112 3.0
e 114 240 3.0
e 116 117 94.0
e 116 118 1.0
e 116 119 63.0
e 116 194 99.0
e 116 153 61.0
e 117 232 12.0
e 117 296 3.0
e 117 199 61.0
e 117 125 82.0
e 121 124 3.0
e 121 113 1.0
e 126 128 5.0
e 126 121 1.0
e 129 130 13.0
e 133 248 2.0
e 133 126 3.0
e 137 139 2.0
e 137 133 3.0
e 142 297 7.0
e 142 137 10.0
e 143 167 4.0
e 143 142 2.0
e 144 145 2.0
e 144 143 4.0
e 146 251 2.0
e 146 144 8.0
e 147 148 2.0
e 147 146 5.0
e 149 266 1.0
e 149 147 3.0
e 150 205 2.0
e 150 149 1.0
e 151 303 68.0
e 152 155 3.0
e 152 150 4.0
e 156 252 9.0
e 156 152 2.0
e 157 163 69.0
e 157 160 7.0
e 157 161 90.0
e 157 218 12.0
e 157 162 46.0
e 157 156 70.0
e 160 164 29.0
e 160 168 11.0
e 172 206 1.0
e 172 157 51.0
e 173 175 1.0
e 173 172 1.0
e 176 179 2.0
e 176 173 1.0
e 180 181 20.0
e 180 176 3.0
e 181 208 6.0
e 182 253 36.0
e 182 274 1.0
e 182 180 7.0
e 189 191 2.0
e 189 182 25.0
e 192 193 1.0
e 192 189 11.0
e 195 292 2.0
e 195 192 1.0
e 196 197 2.0
e 196 195 2.0
e 200 258 9.0
e 200 196 2.0
e 209 212 11.0
e 209 213 2.0
e 209 200 23.0
e 217 219 34.0
e 217 209 4.0
e 219 311 68.0
e 219 259 4.0
e 219 220 17.0
e 219 293 23.0
e 221 223 3.0
e 221 217 4.0
e 224 225 22.0
e 224 291 8.0
e 224 221 11.0
e 226 227 4.0
e 226 224 13.0
e 229 231 6.0
e 229 226 4.0
e 236 261 1.0
e 236 229 3.0
e 237 238 37.0
e 238 239 40.0
e 238 241 29.0
e 238 290 28.0
e 238 242 71.0
e 243 244 1.0
e 243 236 4.0
e 245 247 1.0
e 245 243 1.0
e 249 250 1.0
e 249 245 2.0
e 253 254 78.0
e 253 255 29.0
e 253 263 96.0
e 253 264 30.0
e 267 268 9.0
e 267 249 1.0
e 269 272 1.0
e 269 267 2.0
e 273 275 1.0
e 273 269 4.0
e 276 278 71.0
e 276 279 76.0
e 276 280 12.0
e 276 281 31.0
e 276 282 94.0
e 280 285 76.0
e 280 286 85.0
e 280 287 39.0
e 280 288 34.0
e 287 289 96.0
e 287 291 14.0
e 287 308 93.0
e 287 294 33.0
e 295 296 30.0
e 295 298 49.0
e 295 299 35.0
e 296 316 32.0
e 296 300 10.0
e 296 301 20.0
e 301 303 93.0
e 301 304 35.0
e 301 305 12.0
e 303 306 57.0
e 303 312 8.0
e 303 314 70.0
e 315 316 18.0
e 317 318 2.0
e 317 273 2.0
e 319 317 7.0
